/*********************************************
 * OPL 12.7.1.0 Data
 * Author: anthonyn
 * Creation Date: Jan 2, 2018 at 6:10:31 PM
 *********************************************/

 // A
 numNurses = 1800;
 hours =  24;
 demand = [964 650 966 1021 824 387 828 952 611 468 403 561 862 597 1098 855 918 1016 897 356 615 670 826 349];
 minHours = 6;
 maxHours = 18;
 maxConsec = 7;
 
 // B
 maxPresence = 24;
  